120
150
88
54
26
43
80
65
65
20
84
70
56
66
66
80
34
26
98
88
54
56
52
40
24
27
93
30
26
45
20
59
37
46
98
40
22
74
22
59
41
54
50
59
91
88
62
30
45
43
62
75
34
41
98
71
85
82
23
96
67
80
35
85
26
79
37
65
56
20
87
62
46
38
34
62
88
70
80
46
26
91
49
59
34
34
84
80
65
66
29
84
95
66
66
55
55
47
41
62
70
80
59
90
51
34
65
29
27
98
52
52
98
66
43
41
66
98
84
80
70
98
